
===== New CPLEX run =====
Instance: /home/yorig/tuner/mpils-tests/instances/miplib/easy/lotsize.mps
Config: /scratch/yorig/mpils-results-grid-ticks-10000/easy/16proc/seed-9/4_lotsize_seed-9_20260425_202405/iterated_local_search/run_2_worker_4/ils_config_8040891430040375750.prm
========================

Selected objective sense:  MINIMIZE
Selected objective  name:  R1921
Selected RHS        name:  B
Selected bound      name:  BOUND
Version identifier: 22.1.2.0 | 2024-11-26 | 0edbb82fd
CPXPARAM_Threads                                 8
CPXPARAM_Parallel                                1
CPXPARAM_MIP_Cuts_Cliques                        3
CPXPARAM_MIP_Strategy_VariableSelect             -1
CPXPARAM_MIP_Cuts_FlowCovers                     -1
CPXPARAM_MIP_Cuts_Implied                        -1
CPXPARAM_MIP_Cuts_GUBCovers                      2
CPXPARAM_MIP_Limits_GomoryCand                   150
CPXPARAM_MIP_Cuts_Gomory                         2
CPXPARAM_MIP_Cuts_PathCut                        1
CPXPARAM_MIP_Cuts_MIRCut                         -1
CPXPARAM_DetTimeLimit                            10000
Tried aggregator 1 time.
MIP Presolve eliminated 595 rows and 0 columns.
MIP Presolve added 1190 rows and 0 columns.
MIP Presolve modified 10 coefficients.
Reduced MIP has 2515 rows, 2985 columns, and 7755 nonzeros.
Reduced MIP has 1195 binaries, 0 generals, 0 SOSs, and 0 indicators.
Presolve time = 0.00 sec. (4.53 ticks)
Probing fixed 0 vars, tightened 5487 bounds.
Probing time = 0.01 sec. (18.38 ticks)
Tried aggregator 2 times.
Detecting symmetries...
MIP Presolve modified 1206 coefficients.
Aggregator did 10 substitutions.
Reduced MIP has 2505 rows, 2975 columns, and 7735 nonzeros.
Reduced MIP has 1195 binaries, 0 generals, 0 SOSs, and 0 indicators.
Presolve time = 0.00 sec. (6.66 ticks)
Probing fixed 0 vars, tightened 2401 bounds.
Probing time = 0.00 sec. (6.41 ticks)
Clique table members: 190.
MIP emphasis: balance optimality and feasibility.
MIP search method: dynamic search.
Parallel mode: deterministic, using up to 8 threads.
Root relaxation solution time = 0.01 sec. (9.71 ticks)

        Nodes                                         Cuts/
   Node  Left     Objective  IInf  Best Integer    Best Bound    ItCnt     Gap

      0     0   348385.3466   472                 348385.3466      882         
      0     0   456112.0019   638                   Cuts: 414     1401         
      0     0   506021.8480   605                   Cuts: 248     1874         
      0     0   552605.3629   624                   Cuts: 211     2227         
      0     0   593998.3467   615                   Cuts: 199     2561         
*     0+    0                       1.01740e+07   593998.3467            94.16%
*     0+    0                      7973370.0000   593998.3467            92.55%
      0     0   616088.8498   639  7973370.0000     Cuts: 147     2801   92.27%
Detecting symmetries...
      0     0   630281.9526   649  7973370.0000     Cuts: 117     2981   92.10%
      0     0   640534.5208   669  7973370.0000     Cuts: 106     3170   91.97%
      0     0   655384.1281   666  7973370.0000     Cuts: 132     3378   91.78%
      0     0   660383.0477   669  7973370.0000      Cuts: 73     3499   91.72%
      0     0   664061.3205   676  7973370.0000      Cuts: 77     3587   91.67%
      0     0   666797.9450   688  7973370.0000      Cuts: 63     3687   91.64%
      0     0   668444.3191   688  7973370.0000      Cuts: 38     3757   91.62%
      0     0   670681.5594   686  7973370.0000      Cuts: 33     3831   91.59%
      0     0   672274.9862   689  7973370.0000      Cuts: 40     3948   91.57%
      0     0   674014.6657   682  7973370.0000      Cuts: 31     4006   91.55%
      0     0   674965.3251   692  7973370.0000      Cuts: 25     4059   91.53%
      0     0   676273.3515   693  7973370.0000      Cuts: 26     4123   91.52%
      0     0   677210.0066   698  7973370.0000      Cuts: 33     4211   91.51%
      0     0   678388.4677   692  7973370.0000      Cuts: 23     4315   91.49%
      0     0   679112.1453   696  7973370.0000      Cuts: 34     4380   91.48%
      0     0   679696.3597   697  7973370.0000      Cuts: 26     4455   91.48%
      0     0   680718.5858   691  7973370.0000      Cuts: 24     4537   91.46%
      0     0   682645.6290   696  7973370.0000      Cuts: 44     4638   91.44%
      0     0   683448.3965   694  7973370.0000      Cuts: 35     4734   91.43%
      0     0   684102.2361   702  7973370.0000      Cuts: 22     4804   91.42%
      0     0   684488.0851   701  7973370.0000      Cuts: 20     4867   91.42%
      0     0   685668.7276   708  7973370.0000      Cuts: 25     4947   91.40%
      0     0   685854.7244   697  7973370.0000      Cuts: 15     5009   91.40%
      0     0   686133.6897   707  7973370.0000      Cuts: 30     5095   91.39%
      0     0   686676.3427   704  7973370.0000      Cuts: 25     5224   91.39%
      0     0   687240.2028   695  7973370.0000      Cuts: 24     5310   91.38%
      0     0   687857.7144   697  7973370.0000      Cuts: 24     5380   91.37%
      0     0   688432.1467   697  7973370.0000      Cuts: 20     5469   91.37%
      0     0   689586.3699   703  7973370.0000      Cuts: 27     5610   91.35%
      0     0   690136.2968   703  7973370.0000      Cuts: 29     5696   91.34%
      0     0   690620.5258   696  7973370.0000      Cuts: 18     5761   91.34%
      0     0   691086.1051   693  7973370.0000      Cuts: 18     5846   91.33%
      0     0   691263.3840   703  7973370.0000      Cuts: 17     5889   91.33%
Detecting symmetries...
      0     2   691263.3840   702  7973370.0000   691263.3840     5889   91.33%
Elapsed time = 2.04 sec. (3591.33 ticks, tree = 0.02 MB, solutions = 2)
     69    33   702810.8159   690  7973370.0000   692067.7952     7702   91.32%
    237   192   703234.0225   670  7973370.0000   692067.7952    15302   91.32%
    390   351   707551.6540   652  7973370.0000   692067.7952    20749   91.32%
    512   455   708000.0427   653  7973370.0000   692067.7952    24160   91.32%
    622   524   723008.8433   621  7973370.0000   692067.7952    26323   91.32%
    749   655   729125.4878   640  7973370.0000   692067.7952    29977   91.32%
    967   848   714498.8177   643  7973370.0000   692067.7952    36775   91.32%
   1243  1034   741490.1560   613  7973370.0000   692067.7952    42149   91.32%
   1489  1320   769351.2716   538  7973370.0000   692067.7952    50899   91.32%

Performing restart 1

Repeating presolve.
Tried aggregator 1 time.
MIP Presolve modified 1168 coefficients.
Reduced MIP has 2505 rows, 2975 columns, and 7735 nonzeros.
Reduced MIP has 1195 binaries, 0 generals, 0 SOSs, and 0 indicators.
Presolve time = 0.00 sec. (3.81 ticks)
Tried aggregator 1 time.
MIP Presolve modified 970 coefficients.
Reduced MIP has 2505 rows, 2975 columns, and 7735 nonzeros.
Reduced MIP has 1195 binaries, 0 generals, 0 SOSs, and 0 indicators.
Presolve time = 0.00 sec. (5.12 ticks)
Represolve time = 0.02 sec. (21.48 ticks)
   1737     0   720335.6063   728  7973370.0000     Cuts: 211    67774   90.97%
   1737     0   729765.3469   758  7973370.0000     Cuts: 136    68173   90.85%
   1737     0   738697.0326   765  7973370.0000     Cuts: 153    68561   90.74%
   1737     0   744869.2918   748  7973370.0000     Cuts: 121    68839   90.66%
   1737     0   748333.4357   747  7973370.0000      Cuts: 74    69046   90.61%
   1737     0   750014.8198   755  7973370.0000     Cuts: 114    69252   90.59%
   1737     0   752351.4890   747  7973370.0000      Cuts: 62    69413   90.56%
   1737     0   753652.7272   751  7973370.0000      Cuts: 76    69578   90.55%
   1737     0   755015.2729   751  7973370.0000      Cuts: 62    69726   90.53%
   1737     0   755828.0342   753  7973370.0000      Cuts: 63    69877   90.52%
   1737     0   756527.1404   746  7973370.0000      Cuts: 52    69978   90.51%
   1737     0   756834.9548   745  7973370.0000      Cuts: 56    70069   90.51%
   1737     0   757185.0971   750  7973370.0000      Cuts: 30    70138   90.50%
   1737     0   757501.6531   741  7973370.0000      Cuts: 40    70213   90.50%
   1737     0   757823.4230   740  7973370.0000      Cuts: 27    70286   90.50%

GUB cover cuts applied:  0
Clique cuts applied:  2
Cover cuts applied:  20
Flow path cuts applied:  301
Zero-half cuts applied:  3
Multi commodity flow cuts applied:  523
Lift and project cuts applied:  16
Gomory fractional cuts applied:  206

Root node processing (before b&c):
  Real time             =    2.03 sec. (3583.27 ticks)
Parallel b&c, 8 threads:
  Real time             =    4.11 sec. (6417.18 ticks)
  Sync time (average)   =    0.16 sec.
  Wait time (average)   =    0.00 sec.
                          ------------
Total (root+branch&cut) =    6.14 sec. (10000.45 ticks)
Gap: 90.5%
Upper bound: 7.97337e+06
Lower bound: 757823
End of CPLEX run. Time: 6.14471 seconds

===== New CPLEX run =====
Instance: /home/yorig/tuner/mpils-tests/instances/miplib/easy/lotsize.mps
Config: /scratch/yorig/mpils-results-grid-ticks-10000/easy/16proc/seed-9/4_lotsize_seed-9_20260425_202405/iterated_local_search/run_2_worker_4/ils_config_17486438937553683989.prm
========================

Selected objective sense:  MINIMIZE
Selected objective  name:  R1921
Selected RHS        name:  B
Selected bound      name:  BOUND
Version identifier: 22.1.2.0 | 2024-11-26 | 0edbb82fd
CPXPARAM_Threads                                 8
CPXPARAM_Parallel                                1
CPXPARAM_MIP_Cuts_Cliques                        3
CPXPARAM_MIP_Strategy_VariableSelect             -1
CPXPARAM_MIP_Cuts_FlowCovers                     -1
CPXPARAM_MIP_Cuts_Implied                        -1
CPXPARAM_MIP_Cuts_GUBCovers                      2
CPXPARAM_MIP_Limits_GomoryCand                   150
CPXPARAM_MIP_Cuts_Gomory                         2
CPXPARAM_MIP_Cuts_PathCut                        1
CPXPARAM_MIP_Cuts_MIRCut                         1
CPXPARAM_DetTimeLimit                            10000
Tried aggregator 1 time.
MIP Presolve eliminated 595 rows and 0 columns.
MIP Presolve added 1190 rows and 0 columns.
MIP Presolve modified 10 coefficients.
Reduced MIP has 2515 rows, 2985 columns, and 7755 nonzeros.
Reduced MIP has 1195 binaries, 0 generals, 0 SOSs, and 0 indicators.
Presolve time = 0.00 sec. (4.53 ticks)
Probing fixed 0 vars, tightened 5487 bounds.
Probing time = 0.01 sec. (18.38 ticks)
Tried aggregator 2 times.
Detecting symmetries...
MIP Presolve modified 1206 coefficients.
Aggregator did 10 substitutions.
Reduced MIP has 2505 rows, 2975 columns, and 7735 nonzeros.
Reduced MIP has 1195 binaries, 0 generals, 0 SOSs, and 0 indicators.
Presolve time = 0.00 sec. (6.66 ticks)
Probing fixed 0 vars, tightened 2401 bounds.
Probing time = 0.00 sec. (6.41 ticks)
Clique table members: 190.
MIP emphasis: balance optimality and feasibility.
MIP search method: dynamic search.
Parallel mode: deterministic, using up to 8 threads.
Root relaxation solution time = 0.01 sec. (9.71 ticks)

        Nodes                                         Cuts/
   Node  Left     Objective  IInf  Best Integer    Best Bound    ItCnt     Gap

      0     0   348385.3466   472                 348385.3466      882         
      0     0   486518.2731   632                   Cuts: 726     1817         
      0     0   648058.3998   653                   Cuts: 726     2668         
*     0+    0                       1.01740e+07   648058.3998            93.63%
*     0+    0                      7973370.0000   648058.3998            91.87%
      0     0   758825.1777   662  7973370.0000     Cuts: 726     3452   90.48%
      0     0   847941.7988   671  7973370.0000     Cuts: 726     4166   89.37%
      0     0   926702.6379   729  7973370.0000     Cuts: 726     4831   88.38%
Detecting symmetries...
      0     0  1027098.7442   703  7973370.0000     Cuts: 726     5602   87.12%
      0     0  1083657.0841   746  7973370.0000     Cuts: 726     6258   86.41%
      0     0  1143625.8493   768  7973370.0000     Cuts: 726     6928   85.66%
      0     0  1175321.3229   748  7973370.0000     Cuts: 594     7466   85.26%
      0     0  1206114.7637   790  7973370.0000     Cuts: 536     7960   84.87%
      0     0  1250624.1600   789  7973370.0000     Cuts: 613     8618   84.31%
      0     0  1273015.1462   803  7973370.0000     Cuts: 600     9216   84.03%
      0     0  1286766.4735   807  7973370.0000     Cuts: 374     9622   83.86%
      0     0  1296865.9757   796  7973370.0000     Cuts: 338    10006   83.74%
      0     0  1301882.8845   803  7973370.0000     Cuts: 226    10279   83.67%
      0     0  1307265.7884   811  7973370.0000     Cuts: 196    10546   83.60%
      0     0  1311622.8731   824  7973370.0000     Cuts: 184    10785   83.55%
      0     0  1313992.7826   809  7973370.0000     Cuts: 144    10930   83.52%
      0     0  1315241.2543   811  7973370.0000     Cuts: 130    11077   83.50%
      0     0  1316026.6283   821  7973370.0000      Cuts: 84    11195   83.49%
      0     0  1316650.7261   832  7973370.0000      Cuts: 91    11292   83.49%
      0     0  1316880.9791   838  7973370.0000      Cuts: 39    11357   83.48%
      0     0  1317350.4741   825  7973370.0000      Cuts: 32    11418   83.48%
      0     0  1317927.0105   819  7973370.0000      Cuts: 57    11488   83.47%
      0     0  1318580.8385   833  7973370.0000      Cuts: 49    11549   83.46%
      0     0  1319234.5395   820  7973370.0000      Cuts: 28    11615   83.45%
      0     0  1319628.0811   827  7973370.0000      Cuts: 44    11682   83.45%
      0     0  1319918.0438   833  7973370.0000      Cuts: 35    11752   83.45%
Detecting symmetries...
      0     2  1319918.0438   833  7973370.0000  1319918.0438    11752   83.45%
Elapsed time = 4.03 sec. (6636.23 ticks, tree = 0.02 MB, solutions = 2)
      5     3  1319959.6110   826  7973370.0000  1319949.1380    11754   83.45%
     22    14  1342454.7963   802  7973370.0000  1320037.1368    13252   83.44%
     53    26  1340998.6699   781  7973370.0000  1320037.1368    14614   83.44%
    145   106  1331289.3658   760  7973370.0000  1320037.1368    18623   83.44%
    244   191  1393261.1873   672  7973370.0000  1326786.8051    24507   83.36%
    379   278  1359562.6597   737  7973370.0000  1326786.8051    30835   83.36%
    510   436  1341003.1699   713  7973370.0000  1326786.8051    37873   83.36%
    604   532  1367579.5217   688  7973370.0000  1326786.8051    41455   83.36%
    714   603  1367025.7805   672  7973370.0000  1326786.8051    44484   83.36%
   1567  1379  1390942.1962   475  7973370.0000  1326786.8051    71363   83.36%
Elapsed time = 6.14 sec. (9802.49 ticks, tree = 2.01 MB, solutions = 2)

GUB cover cuts applied:  0
Clique cuts applied:  3
Cover cuts applied:  11
Mixed integer rounding cuts applied:  1619
Flow path cuts applied:  56
Multi commodity flow cuts applied:  51
Gomory fractional cuts applied:  12

Root node processing (before b&c):
  Real time             =    4.01 sec. (6628.79 ticks)
Parallel b&c, 8 threads:
  Real time             =    2.27 sec. (3375.16 ticks)
  Sync time (average)   =    0.26 sec.
  Wait time (average)   =    0.00 sec.
                          ------------
Total (root+branch&cut) =    6.28 sec. (10003.95 ticks)
Gap: 83.36%
Upper bound: 7.97337e+06
Lower bound: 1.32679e+06
End of CPLEX run. Time: 6.2837 seconds

===== New CPLEX run =====
Instance: /home/yorig/tuner/mpils-tests/instances/miplib/easy/lotsize.mps
Config: /scratch/yorig/mpils-results-grid-ticks-10000/easy/16proc/seed-9/4_lotsize_seed-9_20260425_202405/iterated_local_search/run_2_worker_4/ils_config_5992041389388390260.prm
========================

Selected objective sense:  MINIMIZE
Selected objective  name:  R1921
Selected RHS        name:  B
Selected bound      name:  BOUND
Version identifier: 22.1.2.0 | 2024-11-26 | 0edbb82fd
CPXPARAM_Threads                                 8
CPXPARAM_Parallel                                1
CPXPARAM_MIP_Cuts_Cliques                        3
CPXPARAM_MIP_Strategy_VariableSelect             -1
CPXPARAM_MIP_Cuts_FlowCovers                     -1
CPXPARAM_MIP_Cuts_Implied                        -1
CPXPARAM_MIP_Cuts_GUBCovers                      2
CPXPARAM_MIP_Limits_GomoryCand                   150
CPXPARAM_MIP_Cuts_Gomory                         2
CPXPARAM_MIP_Cuts_PathCut                        2
CPXPARAM_MIP_Cuts_MIRCut                         1
CPXPARAM_DetTimeLimit                            10000
Tried aggregator 1 time.
MIP Presolve eliminated 595 rows and 0 columns.
MIP Presolve added 1190 rows and 0 columns.
MIP Presolve modified 10 coefficients.
Reduced MIP has 2515 rows, 2985 columns, and 7755 nonzeros.
Reduced MIP has 1195 binaries, 0 generals, 0 SOSs, and 0 indicators.
Presolve time = 0.00 sec. (4.53 ticks)
Probing fixed 0 vars, tightened 5487 bounds.
Probing time = 0.01 sec. (18.38 ticks)
Tried aggregator 2 times.
Detecting symmetries...
MIP Presolve modified 1206 coefficients.
Aggregator did 10 substitutions.
Reduced MIP has 2505 rows, 2975 columns, and 7735 nonzeros.
Reduced MIP has 1195 binaries, 0 generals, 0 SOSs, and 0 indicators.
Presolve time = 0.00 sec. (6.66 ticks)
Probing fixed 0 vars, tightened 2401 bounds.
Probing time = 0.00 sec. (6.41 ticks)
Clique table members: 190.
MIP emphasis: balance optimality and feasibility.
MIP search method: dynamic search.
Parallel mode: deterministic, using up to 8 threads.
Root relaxation solution time = 0.01 sec. (9.71 ticks)

        Nodes                                         Cuts/
   Node  Left     Objective  IInf  Best Integer    Best Bound    ItCnt     Gap

      0     0   348385.3466   472                 348385.3466      882         
      0     0   486518.2731   632                   Cuts: 726     1817         
      0     0   648058.3998   653                   Cuts: 726     2668         
*     0+    0                       1.01740e+07   648058.3998            93.63%
*     0+    0                      7973370.0000   648058.3998            91.87%
      0     0   758825.1777   662  7973370.0000     Cuts: 726     3452   90.48%
      0     0   847941.7988   671  7973370.0000     Cuts: 726     4166   89.37%
      0     0   926702.6379   729  7973370.0000     Cuts: 726     4831   88.38%
Detecting symmetries...
      0     0  1027098.7442   703  7973370.0000     Cuts: 726     5602   87.12%
      0     0  1083657.0841   746  7973370.0000     Cuts: 726     6258   86.41%
      0     0  1143625.8493   768  7973370.0000     Cuts: 726     6928   85.66%
      0     0  1175321.3229   748  7973370.0000     Cuts: 594     7466   85.26%
      0     0  1206114.7637   790  7973370.0000     Cuts: 536     7960   84.87%
      0     0  1250624.1600   789  7973370.0000     Cuts: 613     8618   84.31%
      0     0  1273015.1462   803  7973370.0000     Cuts: 600     9216   84.03%
      0     0  1286766.4735   807  7973370.0000     Cuts: 374     9622   83.86%
      0     0  1296865.9757   796  7973370.0000     Cuts: 338    10006   83.74%
      0     0  1301882.8845   803  7973370.0000     Cuts: 226    10279   83.67%
      0     0  1307265.7884   811  7973370.0000     Cuts: 196    10546   83.60%
      0     0  1311622.8731   824  7973370.0000     Cuts: 184    10785   83.55%
      0     0  1313992.7826   809  7973370.0000     Cuts: 144    10930   83.52%
      0     0  1315241.2543   811  7973370.0000     Cuts: 130    11077   83.50%
      0     0  1316026.6283   821  7973370.0000      Cuts: 84    11195   83.49%
      0     0  1316650.7261   832  7973370.0000      Cuts: 91    11292   83.49%
      0     0  1316880.9791   838  7973370.0000      Cuts: 39    11357   83.48%
      0     0  1317350.4741   825  7973370.0000      Cuts: 32    11418   83.48%
      0     0  1317927.0105   819  7973370.0000      Cuts: 57    11488   83.47%
      0     0  1318580.8385   833  7973370.0000      Cuts: 49    11549   83.46%
      0     0  1319234.5395   820  7973370.0000      Cuts: 28    11615   83.45%
      0     0  1319628.0811   827  7973370.0000      Cuts: 44    11682   83.45%
      0     0  1319918.0438   833  7973370.0000      Cuts: 35    11752   83.45%
Detecting symmetries...
      0     2  1319918.0438   833  7973370.0000  1319918.0438    11752   83.45%
Elapsed time = 4.06 sec. (6636.23 ticks, tree = 0.02 MB, solutions = 2)
     19    21  1352391.2117   763  7973370.0000  1320037.1368    12405   83.44%
     54     7  1351903.4232   779  7973370.0000  1320037.1368    11957   83.44%
    169   126  1339049.1393   801  7973370.0000  1320879.1481    16843   83.43%
    306   255  1365965.7328   694  7973370.0000  1320879.1481    21211   83.43%
    467   365  1370321.8441   651  7973370.0000  1320879.1481    25025   83.43%
    559   512  1363448.2567   693  7973370.0000  1320879.1481    30845   83.43%
    625   554  1376960.7661   623  7973370.0000  1320879.1481    35190   83.43%
    814   653  1365723.5346   608  7973370.0000  1320879.1481    38835   83.43%
   1078   824  1375253.8036   561  7973370.0000  1320879.1481    44802   83.43%

Performing restart 1

Repeating presolve.
Tried aggregator 1 time.
MIP Presolve modified 1215 coefficients.
Reduced MIP has 2505 rows, 2975 columns, and 7735 nonzeros.
Reduced MIP has 1195 binaries, 0 generals, 0 SOSs, and 0 indicators.
Presolve time = 0.00 sec. (3.78 ticks)
Tried aggregator 1 time.
MIP Presolve modified 1085 coefficients.
Reduced MIP has 2505 rows, 2975 columns, and 7735 nonzeros.
Reduced MIP has 1195 binaries, 0 generals, 0 SOSs, and 0 indicators.
Presolve time = 0.00 sec. (5.12 ticks)
Represolve time = 0.04 sec. (34.08 ticks)

GUB cover cuts applied:  0
Clique cuts applied:  3
Cover cuts applied:  11
Mixed integer rounding cuts applied:  1456
Flow path cuts applied:  72
Multi commodity flow cuts applied:  47
Gomory fractional cuts applied:  11

Root node processing (before b&c):
  Real time             =    4.04 sec. (6628.76 ticks)
Parallel b&c, 8 threads:
  Real time             =    3.20 sec. (3379.65 ticks)
  Sync time (average)   =    0.91 sec.
  Wait time (average)   =    0.00 sec.
                          ------------
Total (root+branch&cut) =    7.24 sec. (10008.41 ticks)
Gap: 83.43%
Upper bound: 7.97337e+06
Lower bound: 1.32088e+06
End of CPLEX run. Time: 7.24073 seconds

===== New CPLEX run =====
Instance: /home/yorig/tuner/mpils-tests/instances/miplib/easy/lotsize.mps
Config: /scratch/yorig/mpils-results-grid-ticks-10000/easy/16proc/seed-9/4_lotsize_seed-9_20260425_202405/iterated_local_search/run_2_worker_4/ils_config_8274167241436926612.prm
========================

Selected objective sense:  MINIMIZE
Selected objective  name:  R1921
Selected RHS        name:  B
Selected bound      name:  BOUND
Version identifier: 22.1.2.0 | 2024-11-26 | 0edbb82fd
CPXPARAM_Threads                                 8
CPXPARAM_Parallel                                1
CPXPARAM_MIP_Cuts_Cliques                        3
CPXPARAM_MIP_Strategy_VariableSelect             -1
CPXPARAM_MIP_Cuts_FlowCovers                     -1
CPXPARAM_MIP_Cuts_Implied                        -1
CPXPARAM_MIP_Cuts_GUBCovers                      2
CPXPARAM_MIP_Limits_GomoryCand                   150
CPXPARAM_MIP_Cuts_PathCut                        1
CPXPARAM_MIP_Cuts_MIRCut                         1
CPXPARAM_DetTimeLimit                            10000
Tried aggregator 1 time.
MIP Presolve eliminated 595 rows and 0 columns.
MIP Presolve added 1190 rows and 0 columns.
MIP Presolve modified 10 coefficients.
Reduced MIP has 2515 rows, 2985 columns, and 7755 nonzeros.
Reduced MIP has 1195 binaries, 0 generals, 0 SOSs, and 0 indicators.
Presolve time = 0.00 sec. (4.53 ticks)
Probing fixed 0 vars, tightened 5487 bounds.
Probing time = 0.01 sec. (18.38 ticks)
Tried aggregator 2 times.
Detecting symmetries...
MIP Presolve modified 1206 coefficients.
Aggregator did 10 substitutions.
Reduced MIP has 2505 rows, 2975 columns, and 7735 nonzeros.
Reduced MIP has 1195 binaries, 0 generals, 0 SOSs, and 0 indicators.
Presolve time = 0.00 sec. (6.66 ticks)
Probing fixed 0 vars, tightened 2401 bounds.
Probing time = 0.00 sec. (6.41 ticks)
Clique table members: 190.
MIP emphasis: balance optimality and feasibility.
MIP search method: dynamic search.
Parallel mode: deterministic, using up to 8 threads.
Root relaxation solution time = 0.01 sec. (9.71 ticks)

        Nodes                                         Cuts/
   Node  Left     Objective  IInf  Best Integer    Best Bound    ItCnt     Gap

      0     0   348385.3466   472                 348385.3466      882         
      0     0   486518.2731   632                   Cuts: 726     1817         
      0     0   648058.3998   653                   Cuts: 726     2668         
*     0+    0                       1.01740e+07   648058.3998            93.63%
*     0+    0                      7973370.0000   648058.3998            91.87%
      0     0   758341.0385   663  7973370.0000     Cuts: 726     3435   90.49%
      0     0   846959.5814   666  7973370.0000     Cuts: 726     4138   89.38%
      0     0   942244.2911   702  7973370.0000     Cuts: 726     4853   88.18%
Detecting symmetries...
      0     0  1031642.4447   691  7973370.0000     Cuts: 726     5556   87.06%
      0     0  1083052.0029   774  7973370.0000     Cuts: 726     6217   86.42%
      0     0  1147551.9349   748  7973370.0000     Cuts: 726     6891   85.61%
      0     0  1181264.7240   768  7973370.0000     Cuts: 606     7434   85.18%
      0     0  1215082.1164   778  7973370.0000     Cuts: 553     7956   84.76%
      0     0  1234802.4702   763  7973370.0000     Cuts: 490     8390   84.51%
      0     0  1247605.6457   815  7973370.0000     Cuts: 362     8823   84.35%
      0     0  1258571.6788   807  7973370.0000     Cuts: 400     9181   84.22%
      0     0  1264923.0439   832  7973370.0000     Cuts: 311     9510   84.14%
      0     0  1272096.0490   807  7973370.0000     Cuts: 311     9795   84.05%
      0     0  1278596.2851   803  7973370.0000     Cuts: 207    10075   83.96%
      0     0  1284181.9432   792  7973370.0000     Cuts: 246    10299   83.89%
      0     0  1287403.3439   808  7973370.0000     Cuts: 190    10488   83.85%
      0     0  1290702.0049   788  7973370.0000     Cuts: 178    10684   83.81%
      0     0  1292316.8383   809  7973370.0000     Cuts: 170    10846   83.79%
      0     0  1294255.5348   804  7973370.0000     Cuts: 121    10973   83.77%
      0     0  1295922.6815   794  7973370.0000     Cuts: 159    11141   83.75%
      0     0  1297814.9002   792  7973370.0000     Cuts: 114    11277   83.72%
      0     0  1299100.3898   803  7973370.0000     Cuts: 119    11387   83.71%
      0     0  1300815.7292   796  7973370.0000      Cuts: 59    11503   83.69%
      0     0  1302404.5983   808  7973370.0000      Cuts: 66    11584   83.67%
      0     0  1303027.8724   831  7973370.0000      Cuts: 57    11648   83.66%
      0     0  1304930.5809   828  7973370.0000      Cuts: 49    11772   83.63%
      0     0  1305729.6304   827  7973370.0000      Cuts: 63    11835   83.62%
      0     0  1306329.3475   826  7973370.0000      Cuts: 41    11899   83.62%
      0     0  1306867.5510   835  7973370.0000      Cuts: 36    11957   83.61%
      0     0  1307295.0278   833  7973370.0000      Cuts: 36    12020   83.60%
      0     0  1307819.8548   831  7973370.0000      Cuts: 39    12070   83.60%
      0     0  1308502.8939   830  7973370.0000      Cuts: 48    12132   83.59%
      0     0  1309377.7609   832  7973370.0000      Cuts: 55    12195   83.58%
      0     0  1310333.3242   829  7973370.0000      Cuts: 40    12266   83.57%
      0     0  1311257.1212   834  7973370.0000      Cuts: 29    12321   83.55%
      0     0  1311755.4833   827  7973370.0000      Cuts: 64    12370   83.55%
      0     0  1311846.6394   834  7973370.0000      Cuts: 34    12401   83.55%
Detecting symmetries...
      0     2  1311846.6394   834  7973370.0000  1311846.6394    12401   83.55%
Elapsed time = 4.38 sec. (7125.05 ticks, tree = 0.02 MB, solutions = 2)
     14     6  1322170.6471   805  7973370.0000  1311848.0308    12755   83.55%
     27    18  1342097.4258   780  7973370.0000  1312042.5099    13729   83.54%
     76    38  1358511.5642   754  7973370.0000  1312042.5099    19248   83.54%
    132   101  1358122.6993   743  7973370.0000  1312042.5099    26535   83.54%
    206   183  1350849.8176   711  7973370.0000  1312042.5099    32793   83.54%
    275   223  1361119.1724   736  7973370.0000  1312042.5099    36241   83.54%
    328   281  1356041.6438   736  7973370.0000  1312042.5099    40954   83.54%
    414   379  1375889.9296   719  7973370.0000  1312042.5099    48950   83.54%
    474   420  1357090.7133   711  7973370.0000  1312042.5099    52380   83.54%

GUB cover cuts applied:  0
Clique cuts applied:  3
Cover cuts applied:  10
Mixed integer rounding cuts applied:  1565
Flow path cuts applied:  73
Multi commodity flow cuts applied:  50
Gomory fractional cuts applied:  12

Root node processing (before b&c):
  Real time             =    4.36 sec. (7117.55 ticks)
Parallel b&c, 8 threads:
  Real time             =    1.75 sec. (2892.35 ticks)
  Sync time (average)   =    0.20 sec.
  Wait time (average)   =    0.00 sec.
                          ------------
Total (root+branch&cut) =    6.11 sec. (10009.90 ticks)
Gap: 83.54%
Upper bound: 7.97337e+06
Lower bound: 1.31204e+06
End of CPLEX run. Time: 6.11227 seconds

===== New CPLEX run =====
Instance: /home/yorig/tuner/mpils-tests/instances/miplib/easy/lotsize.mps
Config: /scratch/yorig/mpils-results-grid-ticks-10000/easy/16proc/seed-9/4_lotsize_seed-9_20260425_202405/iterated_local_search/run_2_worker_4/ils_config_17947429082722262101.prm
========================

Selected objective sense:  MINIMIZE
Selected objective  name:  R1921
Selected RHS        name:  B
Selected bound      name:  BOUND
Version identifier: 22.1.2.0 | 2024-11-26 | 0edbb82fd
CPXPARAM_Threads                                 8
CPXPARAM_Parallel                                1
CPXPARAM_MIP_Cuts_Cliques                        3
CPXPARAM_MIP_Strategy_VariableSelect             -1
CPXPARAM_MIP_Cuts_FlowCovers                     1
CPXPARAM_MIP_Cuts_Implied                        -1
CPXPARAM_MIP_Cuts_GUBCovers                      2
CPXPARAM_MIP_Limits_GomoryCand                   150
CPXPARAM_MIP_Cuts_Gomory                         2
CPXPARAM_MIP_Cuts_PathCut                        1
CPXPARAM_MIP_Cuts_MIRCut                         1
CPXPARAM_DetTimeLimit                            10000
Tried aggregator 1 time.
MIP Presolve eliminated 595 rows and 0 columns.
MIP Presolve added 1190 rows and 0 columns.
MIP Presolve modified 10 coefficients.
Reduced MIP has 2515 rows, 2985 columns, and 7755 nonzeros.
Reduced MIP has 1195 binaries, 0 generals, 0 SOSs, and 0 indicators.
Presolve time = 0.00 sec. (4.53 ticks)
Probing fixed 0 vars, tightened 5487 bounds.
Probing time = 0.01 sec. (18.38 ticks)
Tried aggregator 2 times.
Detecting symmetries...
MIP Presolve modified 1206 coefficients.
Aggregator did 10 substitutions.
Reduced MIP has 2505 rows, 2975 columns, and 7735 nonzeros.
Reduced MIP has 1195 binaries, 0 generals, 0 SOSs, and 0 indicators.
Presolve time = 0.00 sec. (6.66 ticks)
Probing fixed 0 vars, tightened 2401 bounds.
Probing time = 0.00 sec. (6.41 ticks)
Clique table members: 190.
MIP emphasis: balance optimality and feasibility.
MIP search method: dynamic search.
Parallel mode: deterministic, using up to 8 threads.
Root relaxation solution time = 0.01 sec. (9.71 ticks)

        Nodes                                         Cuts/
   Node  Left     Objective  IInf  Best Integer    Best Bound    ItCnt     Gap

      0     0   348385.3466   472                 348385.3466      882         
      0     0   535834.0779   527                   Cuts: 726     1975         
      0     0   780975.5354   654                   Cuts: 726     2903         
*     0+    0                       1.01740e+07   780975.5354            92.32%
*     0+    0                      7973370.0000   780975.5354            90.21%
      0     0   920462.0868   698  7973370.0000     Cuts: 726     3666   88.46%
      0     0  1008083.5397   689  7973370.0000     Cuts: 726     4312   87.36%
      0     0  1071392.1095   726  7973370.0000     Cuts: 726     4957   86.56%
Detecting symmetries...
      0     0  1135651.4274   723  7973370.0000     Cuts: 726     5633   85.76%
      0     0  1167425.2534   784  7973370.0000     Cuts: 718     6156   85.36%
      0     0  1208701.0471   765  7973370.0000     Cuts: 688     6818   84.84%
      0     0  1228864.4122   783  7973370.0000     Cuts: 476     7239   84.59%
      0     0  1241826.1499   771  7973370.0000     Cuts: 468     7616   84.43%
      0     0  1252960.6060   816  7973370.0000     Cuts: 340     7974   84.29%
      0     0  1262431.6661   814  7973370.0000     Cuts: 323     8263   84.17%
      0     0  1269860.5252   811  7973370.0000     Cuts: 303     8551   84.07%
      0     0  1275749.8747   877  7973370.0000     Cuts: 256     8823   84.00%
      0     0  1282100.9991   872  7973370.0000     Cuts: 306     9116   83.92%
      0     0  1288651.7951   886  7973370.0000     Cuts: 323     9414   83.84%
      0     0  1292887.8733   878  7973370.0000     Cuts: 293     9663   83.78%
      0     0  1296192.2373   867  7973370.0000     Cuts: 201     9877   83.74%
      0     0  1298992.2134   880  7973370.0000     Cuts: 182    10130   83.71%
      0     0  1300447.4858   884  7973370.0000     Cuts: 148    10296   83.69%
      0     0  1301001.0704   861  7973370.0000     Cuts: 131    10402   83.68%
      0     0  1303054.7073   852  7973370.0000      Cuts: 96    10524   83.66%
      0     0  1304234.4845   870  7973370.0000     Cuts: 118    10630   83.64%
      0     0  1305387.2828   864  7973370.0000     Cuts: 111    10737   83.63%
      0     0  1306152.0177   864  7973370.0000      Cuts: 76    10817   83.62%
      0     0  1307783.5472   867  7973370.0000     Cuts: 118    10944   83.60%
      0     0  1308241.1337   861  7973370.0000      Cuts: 88    11041   83.59%
      0     0  1308961.4106   872  7973370.0000      Cuts: 67    11144   83.58%
      0     0  1309928.2078   880  7973370.0000     Cuts: 115    11247   83.57%
      0     0  1310514.4637   871  7973370.0000      Cuts: 61    11322   83.56%
      0     0  1311144.4119   868  7973370.0000      Cuts: 57    11386   83.56%
      0     0  1311477.8599   878  7973370.0000      Cuts: 43    11473   83.55%
      0     0  1311718.6782   872  7973370.0000      Cuts: 24    11534   83.55%
Detecting symmetries...
      0     2  1311718.6782   872  7973370.0000  1311718.6782    11534   83.55%
Elapsed time = 4.58 sec. (7544.83 ticks, tree = 0.02 MB, solutions = 2)
     15     5  1318491.0600   833  7973370.0000  1312034.3531    11798   83.54%
     47    37  1338523.4973   702  7973370.0000  1312385.0784    14859   83.54%
     76    57  1346183.4820   817  7973370.0000  1312385.0784    16633   83.54%
     83    85  1345939.8006   687  7973370.0000  1312385.0784    21852   83.54%
     99    98  1357634.3914   675  7973370.0000  1312385.0784    25433   83.54%
    168   118  1369267.5956   666  7973370.0000  1312385.0784    28453   83.54%
    268   199  1370669.3962   727  7973370.0000  1312385.0784    34977   83.54%
    414   313  1386643.4550   621  7973370.0000  1312385.0784    39336   83.54%
    530   354  1374182.6130   725  7973370.0000  1312385.0784    40770   83.54%

GUB cover cuts applied:  0
Clique cuts applied:  0
Cover cuts applied:  12
Flow cuts applied:  498
Mixed integer rounding cuts applied:  1127
Flow path cuts applied:  36
Multi commodity flow cuts applied:  41
Gomory fractional cuts applied:  6

Root node processing (before b&c):
  Real time             =    4.57 sec. (7537.17 ticks)
Parallel b&c, 8 threads:
  Real time             =    1.42 sec. (2469.47 ticks)
  Sync time (average)   =    0.20 sec.
  Wait time (average)   =    0.00 sec.
                          ------------
Total (root+branch&cut) =    5.99 sec. (10006.65 ticks)
Gap: 83.54%
Upper bound: 7.97337e+06
Lower bound: 1.31239e+06
End of CPLEX run. Time: 5.99186 seconds
